9529
1 1 0 0 0 1 0 0 1 1 1 0 1 1 1 0 0 0 0 0 
9 0 14 10 12 13 5 5 1 5 5 10 0 13 13 13 12 5 5 1 10 0 10 14 14 10 9 10 14 8 8 1 14 14 1 5 13 13 10 0 0 13 13 13 12 5 5 5 5 9 1 5 10 10 14 10 0 10 13 12 13 5 1 5 1 5 10 14 9 1 1 10 0 0 10 10 10 14 14 14 9 5 12 12 0 12 0 8 8 1 13 13 13 0 13 13 13 13 13 13 
